peakDumbCharging = 29600; 
Machine = anon_enum(16); 
machineSpeed = [3700,3700,3700,3700,3700,3700,3700,3700,3700,3700,3700,3700,3700,3700,3700,3700]; 
machineLoad = [3700,3700,3700,3700,3700,3700,3700,3700,3700,3700,3700,3700,3700,3700,3700,3700]; 
Car = anon_enum(37); 
demandCar = [4120,1520,8360,3040,2640,8120,15560,4480,15720,6600,15040,15680,2600,2880,3760,9160,3320,6720,9840,8320,4560,2560,5320,11600,2240,8240,3160,5320,6440,4240,5360,2640,7480,16840,23080,4400,3000]; 
arrivalCar = [78,74,73,72,71,68,67,66,66,65,62,62,62,62,61,60,59,59,59,59,57,55,53,51,50,48,47,47,46,46,45,44,43,42,31,29,28]; 
departureCar = [82,75,77,74,72,74,74,68,76,70,70,68,64,63,64,65,61,62,63,63,62,57,55,55,51,54,51,50,49,49,53,46,46,50,39,31,32]; 
